101 664
1 70 30 32 90 63 64 49 36 47 48 19 11 62 10 31 88 7 82 8 46 45 83 60 5 84 17 61 16 86 44 38 14 100 91 85 93 98 37 42 43 15 57 2 21 73 72 74 41 22 75 23 56 4 39 67 25 55 54 24 29 80 68 77 3 79 78 34 35 65 71 66 20 9 51 81 33 50 76 12 28 101 53 26 40 58 13 87 97 95 94 92 59 99 96 6 89 18 52 27 69 
